<?xml version = "1.0" standalone="yes"?>
<!-- This file has been generated by DOcplex version 2.23.222  -->
<CPLEXSolution version="1.0">
 <header
   problemName="CVRP"
   objectiveValue="22155.6"
  />
 <variables>
  <variable name="x_0_2" index="1" value="1.00000"/>
  <variable name="x_0_3" index="2" value="1.00000"/>
  <variable name="x_0_4" index="3" value="1.00000"/>
  <variable name="x_0_5" index="4" value="1.00000"/>
  <variable name="x_0_9" index="8" value="1.00000"/>
  <variable name="x_0_11" index="10" value="1.00000"/>
  <variable name="x_0_15" index="14" value="1.00000"/>
  <variable name="x_0_16" index="15" value="1.00000"/>
  <variable name="x_0_17" index="16" value="1.00000"/>
  <variable name="x_0_18" index="17" value="1.00000"/>
  <variable name="x_0_20" index="19" value="1.00000"/>
  <variable name="x_0_21" index="20" value="1.00000"/>
  <variable name="x_0_23" index="22" value="1.00000"/>
  <variable name="x_0_24" index="23" value="1.00000"/>
  <variable name="x_0_26" index="25" value="1.00000"/>
  <variable name="x_1_0" index="26" value="1.00000"/>
  <variable name="x_2_22" index="73" value="1.00000"/>
  <variable name="x_3_0" index="78" value="1.00000"/>
  <variable name="x_4_7" index="110" value="1.00000"/>
  <variable name="x_5_13" index="142" value="1.00000"/>
  <variable name="x_6_1" index="157" value="1.00000"/>
  <variable name="x_7_0" index="182" value="1.00000"/>
  <variable name="x_8_0" index="208" value="1.00000"/>
  <variable name="x_9_0" index="234" value="1.00000"/>
  <variable name="x_10_25" index="284" value="1.00000"/>
  <variable name="x_11_0" index="286" value="1.00000"/>
  <variable name="x_12_0" index="312" value="1.00000"/>
  <variable name="x_13_0" index="338" value="1.00000"/>
  <variable name="x_14_0" index="364" value="1.00000"/>
  <variable name="x_15_0" index="390" value="1.00000"/>
  <variable name="x_16_19" index="434" value="1.00000"/>
  <variable name="x_17_12" index="454" value="1.00000"/>
  <variable name="x_18_6" index="474" value="1.00000"/>
  <variable name="x_19_0" index="494" value="1.00000"/>
  <variable name="x_20_0" index="520" value="1.00000"/>
  <variable name="x_21_8" index="554" value="1.00000"/>
  <variable name="x_22_0" index="572" value="1.00000"/>
  <variable name="x_23_10" index="608" value="1.00000"/>
  <variable name="x_24_0" index="624" value="1.00000"/>
  <variable name="x_25_0" index="650" value="1.00000"/>
  <variable name="x_26_14" index="690" value="1.00000"/>
  <variable name="u_1" index="702" value="58.00000"/>
  <variable name="u_2" index="703" value="44.00000"/>
  <variable name="u_3" index="704" value="58.00000"/>
  <variable name="u_4" index="705" value="10.00000"/>
  <variable name="u_5" index="706" value="16.00000"/>
  <variable name="u_6" index="707" value="48.00000"/>
  <variable name="u_7" index="708" value="59.00000"/>
  <variable name="u_8" index="709" value="59.00000"/>
  <variable name="u_9" index="710" value="42.00000"/>
  <variable name="u_10" index="711" value="33.00000"/>
  <variable name="u_11" index="712" value="59.00000"/>
  <variable name="u_12" index="713" value="59.00000"/>
  <variable name="u_13" index="714" value="56.00000"/>
  <variable name="u_14" index="715" value="59.00000"/>
  <variable name="u_15" index="716" value="46.00000"/>
  <variable name="u_16" index="717" value="41.00000"/>
  <variable name="u_17" index="718" value="39.00000"/>
  <variable name="u_18" index="719" value="27.00000"/>
  <variable name="u_19" index="720" value="56.00000"/>
  <variable name="u_20" index="721" value="48.00000"/>
  <variable name="u_21" index="722" value="41.00000"/>
  <variable name="u_22" index="723" value="59.00000"/>
  <variable name="u_23" index="724" value="26.00000"/>
  <variable name="u_24" index="725" value="59.00000"/>
  <variable name="u_25" index="726" value="59.00000"/>
  <variable name="u_26" index="727" value="24.00000"/>
 </variables>
</CPLEXSolution>
